c Generated map
c Size: 8 * 8, weights in range: 1 to 10, walls: True, with ratio 0.1
c dim 2 of 9
c
p sp 64 92
c graph contains 64 nodes and 92 arcs
c
a 1 9 8
a 9 1 8
a 1 2 9
a 2 1 9
a 2 10 1
a 10 2 1
a 2 3 3
a 3 2 3
a 3 11 1
a 11 3 1
a 3 4 1
a 4 3 1
a 4 5 4
a 5 4 4
a 5 13 4
a 13 5 4
a 5 6 6
a 6 5 6
a 6 14 9
a 14 6 9
a 6 7 9
a 7 6 9
a 7 15 1
a 15 7 1
a 7 8 3
a 8 7 3
a 8 16 4
a 16 8 4
a 9 17 8
a 17 9 8
a 9 10 10
a 10 9 10
a 10 18 5
a 18 10 5
a 10 11 8
a 11 10 8
a 11 19 8
a 19 11 8
a 13 21 5
a 21 13 5
a 13 14 1
a 14 13 1
a 14 22 9
a 22 14 9
a 14 15 4
a 15 14 4
a 15 23 6
a 23 15 6
a 15 16 5
a 16 15 5
a 16 24 1
a 24 16 1
a 17 25 2
a 25 17 2
a 17 18 6
a 18 17 6
a 18 26 6
a 26 18 6
a 18 19 3
a 19 18 3
a 19 20 4
a 20 19 4
a 20 21 10
a 21 20 10
a 21 29 1
a 29 21 1
a 21 22 6
a 22 21 6
a 22 30 6
a 30 22 6
a 22 23 9
a 23 22 9
a 23 31 5
a 31 23 5
a 23 24 4
a 24 23 4
a 25 33 8
a 33 25 8
a 25 26 10
a 26 25 10
a 26 34 7
a 34 26 7
a 29 30 9
a 30 29 9
a 30 38 8
a 38 30 8
a 30 31 5
a 31 30 5
a 31 39 4
a 39 31 4
a 33 41 10
a 41 33 10
a 33 34 6
a 34 33 6
a 34 42 6
a 42 34 6
a 34 35 5
a 35 34 5
a 35 43 4
a 43 35 4
a 35 36 3
a 36 35 3
a 36 44 6
a 44 36 6
a 38 46 8
a 46 38 8
a 38 39 2
a 39 38 2
a 39 47 1
a 47 39 1
a 41 49 3
a 49 41 3
a 41 42 9
a 42 41 9
a 42 50 9
a 50 42 9
a 42 43 7
a 43 42 7
a 43 51 1
a 51 43 1
a 43 44 3
a 44 43 3
a 44 52 3
a 52 44 3
a 44 45 4
a 45 44 4
a 45 53 5
a 53 45 5
a 45 46 6
a 46 45 6
a 46 54 4
a 54 46 4
a 46 47 6
a 47 46 6
a 47 55 10
a 55 47 10
a 47 48 3
a 48 47 3
a 48 56 6
a 56 48 6
a 49 57 3
a 57 49 3
a 49 50 9
a 50 49 9
a 50 58 2
a 58 50 2
a 50 51 9
a 51 50 9
a 51 59 4
a 59 51 4
a 51 52 6
a 52 51 6
a 52 60 2
a 60 52 2
a 52 53 4
a 53 52 4
a 53 61 3
a 61 53 3
a 53 54 9
a 54 53 9
a 54 62 8
a 62 54 8
a 54 55 9
a 55 54 9
a 55 63 9
a 63 55 9
a 55 56 1
a 56 55 1
a 56 64 7
a 64 56 7
a 57 58 5
a 58 57 5
a 58 59 6
a 59 58 6
a 59 60 5
a 60 59 5
a 60 61 3
a 61 60 3
a 61 62 2
a 62 61 2
a 62 63 10
a 63 62 10
a 63 64 6
a 64 63 6
